NAME:15005
COMMENT: From "On the generation of Metric TSP instances with a large integrality gap by branch-and-cut" (Vercesi, Gualandi, Mastrolilli, Gambardella) - https://arxiv.org/abs/2109.02454
TYPE: TSP
DIMENSION: 15
EDGE_WEIGHT_TYPE: EXPLICIT
EDGE_WEIGHT_FORMAT: UPPER_ROW
EDGE_WEIGHT_SECTION
60 29 117 175 58 147 89 89 206 87 293 30 119 117 88 176 118 117 89 30 29 207 146 292 90 59 176 88 146 29 120 118 60 235 58 264 59 90 88 59 59 87 206 147 323 30 176 147 117 1 117 29 148 89 321 88 174 205 59 58 91 147 88 264 29 235 88 61 59 119 60 294 62 203 177 30 87 59 177 176 322 60 89 206 236 117 263 119 30 147 293 147 177 266 323 206 117 87 30 323 233 176 149 147 117 
EOF